Gamma-point only
 1        ! one k-point
rec       ! in units of the reciprocal lattice vector
 0 0 0 1  ! 3 coordinates and weight
