SYSTEM = Pt-100
ISTART = 0
ICHARG = 2
ENCUT = 400
ISMEAR = 1
SIGMA = 0.2
NSW = 99
IBRION = 2
LWAVE = .FALSE
LCHARG = .FALSE
