cleave-110
1.00000000
3.10919549  0.00000000  0.00000000
0.00000000  6.34556266  0.00000000
0.00000000  0.00000000 29.63142956
Ru  O
 8  14
Direct
0.50000000  0.00000000  0.39008068
0.00000000  0.50000000  0.39008068
0.50000000  0.50000000  0.28300582
0.00000000  0.00000000  0.28300582
0.50000000  0.00000000  0.17593095
0.00000000  0.50000000  0.17593095
0.50000000  0.50000000  0.06885609
0.00000000  0.00000000  0.06885609
0.50000000  0.30577342  0.39008068
0.50000000  0.69422658  0.39008068
0.00000000  0.00000004  0.34848712
0.00000000  0.50000000  0.32459939
0.50000000  0.19422658  0.28300582
0.50000000  0.80577342  0.28300582
0.00000000  0.50000004  0.24141225
0.00000000  0.00000000  0.21752453
0.50000000  0.30577342  0.17593095
0.50000000  0.69422658  0.17593095
0.00000000  0.00000004  0.13433739
0.00000000  0.50000000  0.11044966
0.50000000  0.19422658  0.06885609
0.50000000  0.80577342  0.06885609
