 SYSTEM = O2 in a box
 ISMEAR = 0  ! Gaussian smearing
 SIGMA  = 0.01
 ISPIN =  2  ! spin polarized calculation
 MAGMOM = 2.0 2.0
 NSW = 50    ! 50 ionic steps
 IBRION = 2 ! use the conjugate gradient algorithm
