five-layer-thick Pt(100) slab
3.98
        0.50000         0.50000         0.00000
       -0.50000         0.50000         0.00000
        0.00000         0.00000         5.00000
    5
Selective Dynamics
Cartesian
     0.00000         0.00000         0.00000  F  F  F
     0.00000         0.50000         0.50000  F  F  F
     0.00000         0.00000         1.00000  F  F  F
     0.00000         0.50000         1.50000  T  T  T
     0.00000         0.00000         2.00000  T  T  T
