Pt111-2x2-5L-CO_top
     1.0000000000000000
     5.6157819599999996    0.0000000000000000    0.0000000000000000
    -2.8078909799999998    4.8634098400000001    0.0000000000000000
     0.0000000000000000    0.0000000000000000   21.1705335499999983
     Pt  C  O
     20  1  1
Selective dynamics
Direct
  0.0000000000000000  0.0000000000000000  0.2027649999999994   F   F   F
 -0.0000000000000000 -0.0000000000000000  0.5314866126460561   T   T   T
  0.3333335000000019  0.1666664999999981  0.0944709999999986   F   F   F
  0.3312855247821400  0.1656425123910671  0.4171540567401120   T   T   T
  0.1664641667323105  0.3329288334646268  0.3102675242772632   T   T   T
  0.5000000000000000  0.0000000000000000  0.2027649999999994   F   F   F
  0.5001888155989141  0.0003776311978282  0.5238881373946989   T   T   T
  0.8333335000000019  0.1666664999999981  0.0944709999999986   F   F   F
  0.8343574876089328  0.1656425123910671  0.4171540567401120   T   T   T
  0.6666664999999981  0.3333335000000019  0.3082913613417707   T   T   T
  0.0000000000000000  0.5000000000000000  0.2027649999999994   F   F   F
 -0.0003776311978282  0.4998111844010860  0.5238881373946989   T   T   T
  0.3333335000000019  0.6666664999999981  0.0944709999999986   F   F   F
  0.3333335000000019  0.6666664999999981  0.4163790326733888   T   T   T
  0.1664641667323105  0.8335358332676895  0.3102675242772632   T   T   T
  0.5000000000000000  0.5000000000000000  0.2027649999999994   F   F   F
  0.5001888155989141  0.4998111844010860  0.5238881373946989   T   T   T
  0.8333335000000019  0.6666664999999981  0.0944709999999986   F   F   F
  0.8343574876089328  0.6687144752178598  0.4171540567401120   T   T   T
  0.6670711665353731  0.8335358332676895  0.3102675242772632   T   T   T
 -0.0000000000000000 -0.0000000000000000  0.6183075994856049   T   T   T
 -0.0000000000000000 -0.0000000000000000  0.6728603485881666   T   T   T
